25 100
  0     40.0     50.0       0.0     1236.0      0.0       0.0       0.0  
  1     45.0     68.0      885.0     994.0     90.0       9.0      10.0  
  2     45.0     70.0      802.0     893.0     90.0      10.0      30.0  
  3     42.0     66.0      25.0      186.0     90.0       6.0      10.0  
  4     42.0     68.0      699.0     810.0     90.0       9.0      10.0  
  5     42.0     65.0      15.0      120.0     90.0       8.0      10.0  
  6     40.0     69.0      580.0     743.0     90.0      15.0      20.0  
  7     40.0     66.0      142.0     253.0     90.0      20.0      20.0  
  8     38.0     68.0      220.0     359.0     90.0       4.0      20.0  
  9     38.0     70.0      499.0     640.0     90.0       9.0      10.0  
 10     35.0     66.0      331.0     436.0     90.0       8.0      10.0  
 11     35.0     69.0      420.0     533.0     90.0       1.0      10.0  
 12     25.0     85.0      617.0     756.0     90.0      10.0      20.0  
 13     22.0     75.0      30.0      155.0     90.0      15.0      30.0  
 14     22.0     85.0      541.0     646.0     90.0       2.0      10.0  
 15     20.0     80.0      362.0     451.0     90.0      36.0      40.0  
 16     20.0     85.0      448.0     555.0     90.0      28.0      40.0  
 17     18.0     75.0      75.0      172.0     90.0       3.0      20.0  
 18     15.0     75.0      142.0     291.0     90.0       9.0      20.0  
 19     15.0     80.0      244.0     379.0     90.0       4.0      10.0  
 20     30.0     50.0      10.0      137.0     90.0       4.0      10.0  
 21     30.0     52.0      888.0     991.0     90.0      13.0      20.0  
 22     28.0     52.0      776.0     919.0     90.0       1.0      20.0  
 23     28.0     55.0      709.0     800.0     90.0       3.0      10.0  
 24     25.0     50.0      25.0      184.0     90.0       0.0      10.0  
 25     25.0     52.0      142.0     251.0     90.0      37.0      40.0  
